Running for instance ./models/r205.txt
Generating routes...
Execution time:  0.139598966667  minutes
Academic license - for non-commercial use only
Warning: constraint name "Cliente esta na rota" has a space
Optimize a model with 26 rows, 5000 columns and 38783 nonzeros
Variable types: 0 continuous, 5000 integer (0 binary)
Coefficient statistics:
  Matrix range     [1e+00, 1e+00]
  Objective range  [3e+01, 4e+02]
  Bounds range     [1e+00, 1e+00]
  RHS range        [1e+00, 2e+01]
Found heuristic solution: objective 1025.9957517
Presolve removed 0 rows and 1759 columns
Presolve time: 0.04s
Presolved: 26 rows, 3241 columns, 25438 nonzeros
Found heuristic solution: objective 803.8300477
Variable types: 0 continuous, 3241 integer (3241 binary)

Root relaxation: objective 4.980399e+02, 73 iterations, 0.01 seconds

    Nodes    |    Current Node    |     Objective Bounds      |     Work
 Expl Unexpl |  Obj  Depth IntInf | Incumbent    BestBd   Gap | It/Node Time

     0     0  498.03993    0   16  803.83005  498.03993  38.0%     -    0s
H    0     0                     544.1587421  498.03993  8.48%     -    0s
H    0     0                     534.8054463  498.03993  6.87%     -    0s
H    0     0                     516.9093986  498.03993  3.65%     -    0s
     0     0  504.16827    0   23  516.90940  504.16827  2.46%     -    0s
*    0     0               0     514.7750169  514.77502  0.00%     -    0s

Explored 1 nodes (144 simplex iterations) in 0.13 seconds
Thread count was 8 (of 8 available processors)

Solution count 5: 514.775 516.909 534.805 ... 803.83

Optimal solution found (tolerance 1.00e-04)
Best objective 5.147750168818e+02, best bound 5.147750168818e+02, gap 0.0000%
6 16 17 13 4 25 24
2 15 14
12 3 9 20
23 22
7 8 19 11
Distance: 514.775016882
Execution time:  0.148160683333  minutes
